Welcome to the CBC MILP Solver 
Version: 2.8.9 
Build Date: Nov 24 2015 

command line - /vol/cc/opt/maxeler/maxcompiler-2015.2/bin/cbc convolutionKernel10_schedule_C.mps.gz -threads 4 -solve -printi csv -solu convolutionKernel10_schedule_C.csv (default strategy 1)
At line 1 NAME           CxSchedule
At line 2 ROWS
At line 1219 COLUMNS
At line 2977 RHS
At line 3586 BOUNDS
At line 4445 ENDATA
Problem CxSchedule has 1215 rows, 858 columns and 3035 elements
Coin0008I CxSchedule read with 0 errors
threads was changed from 0 to 4
Continuous objective value is 6965 - 0.02 seconds
Cgl0003I 0 fixed, 1199 tightened bounds, 0 strengthened rows, 0 substitutions
Cgl0003I 0 fixed, 771 tightened bounds, 0 strengthened rows, 0 substitutions
Cgl0003I 0 fixed, 703 tightened bounds, 0 strengthened rows, 0 substitutions
Cgl0003I 0 fixed, 412 tightened bounds, 0 strengthened rows, 0 substitutions
Cgl0003I 0 fixed, 71 tightened bounds, 0 strengthened rows, 0 substitutions
Cgl0003I 0 fixed, 24 tightened bounds, 0 strengthened rows, 0 substitutions
Cgl0003I 0 fixed, 4 tightened bounds, 0 strengthened rows, 0 substitutions
Cgl0004I processed model has 1215 rows, 855 columns (855 integer) and 3035 elements
Cutoff increment increased from 1e-05 to 0.9999
Cbc0012I Integer solution of 6965 found by DiveCoefficient after 0 iterations and 0 nodes (0.07 seconds)
Cbc0030I Thread 0 used 0 times,  waiting to start 0.006654501, 0 cpu time, 0 locks, 0 locked, 0 waiting for locks
Cbc0030I Thread 1 used 0 times,  waiting to start 0.0053646564, 0 cpu time, 0 locks, 0 locked, 0 waiting for locks
Cbc0030I Thread 2 used 0 times,  waiting to start 0.0039863586, 0 cpu time, 0 locks, 0 locked, 0 waiting for locks
Cbc0030I Thread 3 used 0 times,  waiting to start 0.0026431084, 0 cpu time, 0 locks, 0 locked, 0 waiting for locks
Cbc0030I Main thread 0 waiting for threads,  1 locks, 6.9141388e-06 locked, 2.3841858e-07 waiting for locks
Cbc0001I Search completed - best objective 6965, took 0 iterations and 0 nodes (0.07 seconds)
Cbc0035I Maximum depth 0, 0 variables fixed on reduced cost
Cuts at root node changed objective from 6965 to 6965
Probing was tried 0 times and created 0 cuts of which 0 were active after adding rounds of cuts (0.000 seconds)
Gomory was tried 0 times and created 0 cuts of which 0 were active after adding rounds of cuts (0.000 seconds)
Knapsack was tried 0 times and created 0 cuts of which 0 were active after adding rounds of cuts (0.000 seconds)
Clique was tried 0 times and created 0 cuts of which 0 were active after adding rounds of cuts (0.000 seconds)
MixedIntegerRounding2 was tried 0 times and created 0 cuts of which 0 were active after adding rounds of cuts (0.000 seconds)
FlowCover was tried 0 times and created 0 cuts of which 0 were active after adding rounds of cuts (0.000 seconds)
TwoMirCuts was tried 0 times and created 0 cuts of which 0 were active after adding rounds of cuts (0.000 seconds)

Result - Optimal solution found

Objective value:                6965.00000000
Enumerated nodes:               0
Total iterations:               0
Time (CPU seconds):             0.10
Time (Wallclock seconds):       0.11

Option for printingOptions changed from normal to csv
Total time (CPU seconds):       0.10   (Wallclock seconds):       0.12

